c Random generated cnf formula, satisfiable: true
p cnf 10 50
-5 9 3 0
2 -6 7 0
4 1 -8 0
-7 5 9 0
-3 2 7 0
3 -4 -6 0
-5 4 -3 0
2 -10 1 0
-7 4 -3 0
2 7 4 0
1 -2 -6 0
9 3 -6 0
6 7 -4 0
-9 3 1 0
7 -3 10 0
-1 -5 -4 0
-10 2 -4 0
5 9 -8 0
-5 -6 -9 0
5 7 10 0
7 -6 8 0
-1 -7 9 0
-3 -2 1 0
3 10 6 0
-6 9 -3 0
6 10 2 0
9 3 2 0
8 6 1 0
-5 2 -8 0
-1 -6 3 0
-1 2 -3 0
-2 -5 9 0
-7 -5 -9 0
-5 -4 -3 0
-10 -8 -3 0
3 8 1 0
1 -4 2 0
-7 -4 9 0
6 2 8 0
10 2 6 0
-4 -10 -9 0
2 -7 -5 0
-8 4 6 0
-3 -6 -8 0
5 10 8 0
-8 -4 6 0
5 1 3 0
4 -8 -10 0
3 -1 6 0
-1 7 -6 0
